p td 160 240
1 2
1 3
1 4
2 3
2 4
3 4
5 18
5 19
5 6
6 18
6 19
7 8
7 126
7 94
8 126
8 94
9 160
9 10
9 36
10 160
10 36
11 81
11 12
11 110
12 81
12 110
13 17
13 22
13 14
14 17
14 22
15 16
15 49
15 50
16 49
16 50
17 22
18 19
20 129
20 21
20 127
21 129
21 127
23 24
23 116
23 109
24 116
24 109
25 32
25 33
25 26
26 32
26 33
27 112
27 136
27 28
28 112
28 136
29 122
29 30
29 31
30 122
30 31
31 122
32 33
34 35
34 92
34 93
35 92
35 93
36 160
37 41
37 42
37 38
38 41
38 42
39 40
39 97
39 100
40 97
40 100
41 42
43 144
43 145
43 44
44 144
44 145
45 65
45 46
45 103
46 65
46 103
47 48
47 137
47 138
48 137
48 138
49 50
51 76
51 75
51 52
52 75
52 76
53 104
53 106
53 54
54 104
54 106
55 56
55 130
55 131
56 130
56 131
57 58
57 61
57 62
58 61
58 62
59 64
59 60
59 63
60 64
60 63
61 62
63 64
65 103
66 153
66 67
66 117
67 153
67 117
68 69
68 70
68 71
69 70
69 71
70 71
72 128
72 73
72 74
73 128
73 74
74 128
75 76
77 90
77 91
77 78
78 90
78 91
79 80
79 118
79 119
80 119
80 118
81 110
82 83
82 86
82 87
83 86
83 87
84 152
84 105
84 85
85 152
85 105
86 87
88 89
88 140
88 141
89 140
89 141
90 91
92 93
94 126
95 96
95 146
95 147
96 146
96 147
97 100
98 99
98 139
98 135
99 139
99 135
101 132
101 102
101 143
102 132
102 143
104 106
105 152
107 113
107 108
107 111
108 113
108 111
109 116
111 113
112 136
114 115
114 134
114 142
115 142
115 134
117 153
118 119
120 121
120 123
120 133
121 123
121 133
123 133
124 125
124 150
124 151
125 150
125 151
127 129
130 131
132 143
134 142
135 139
137 138
140 141
144 145
146 147
148 154
148 155
148 149
149 154
149 155
150 151
154 155
156 157
156 158
156 159
157 158
157 159
158 159
